60
13 18
24 38
22 61
29 62
13 89
9 80
2 92
28 89
19 30
14 82
17 52
7 46
8 98
22 64
30 27
16 35
4 72
5 50
23 77
8 13
4 57
19 28
6 76
7 6
7 54
27 31
8 94
23 36
9 25
3 46
13 58
11 98
27 56
25 65
10 61
8 2
9 73
10 66
3 96
29 57
29 9
24 57
12 66
12 48
14 42
19 44
1 26
3 32
6 40
22 17
20 25
20 69
16 98
25 49
7 8
19 93
2 47
2 22
20 45
17 5
